*SENSE:Maximize
NAME          MODEL
ROWS
 N  OBJ
 L  C0000000
 L  C0000001
COLUMNS
    X0000000  OBJ        1.000000000000e+00
    X0000003  C0000000   1.000000000000e+00
    X0000003  C0000001  -1.000000000000e+00
    X0000003  C0000000   1.000000000000e+00
    X0000003  C0000001  -1.000000000000e+00
    X0000003  C0000000   1.000000000000e+00
    X0000003  C0000001  -1.000000000000e+00
RHS
    RHS       C0000000   3.000000000000e+00
    RHS       C0000001   2.900000000000e+01
BOUNDS
 FX BND       X0000000   0.000000000000e+00
 UP BND       X0000003   2.900000000000e+01
 UP BND       X0000003   2.900000000000e+01
 UP BND       X0000003   2.900000000000e+01
ENDATA
